\* antennalocation *\
Minimize
obj_func: 6759 x_(0,_0) + 2290 x_(0,_1) + 9502 x_(0,_2) + 5697 x_(0,_3)
 + 4732 x_(1,_0) + 3381 x_(1,_1) + 7968 x_(1,_2) + 5105 x_(1,_3)
 + 6116 x_(2,_0) + 1169 x_(2,_1) + 6559 x_(2,_2) + 6509 x_(2,_3)
 + 6552 x_(3,_0) + 9494 x_(3,_1) + 7136 x_(3,_2) + 4236 x_(3,_3)
Subject To
10_0_0: q_(0,_0) - 29 x_(0,_0) <= 0
10_0_1: q_(0,_1) - 33 x_(0,_1) <= 0
10_0_2: q_(0,_2) - 30 x_(0,_2) <= 0
10_0_3: q_(0,_3) - 29 x_(0,_3) <= 0
10_1_0: q_(1,_0) - 26 x_(1,_0) <= 0
10_1_1: q_(1,_1) - 31 x_(1,_1) <= 0
10_1_2: q_(1,_2) - 26 x_(1,_2) <= 0
10_1_3: q_(1,_3) - 37 x_(1,_3) <= 0
10_2_0: q_(2,_0) - 39 x_(2,_0) <= 0
10_2_1: q_(2,_1) - 25 x_(2,_1) <= 0
10_2_2: q_(2,_2) - 35 x_(2,_2) <= 0
10_2_3: q_(2,_3) - 28 x_(2,_3) <= 0
10_3_0: q_(3,_0) - 29 x_(3,_0) <= 0
10_3_1: q_(3,_1) - 38 x_(3,_1) <= 0
10_3_2: q_(3,_2) - 17 x_(3,_2) <= 0
10_3_3: q_(3,_3) - 17 x_(3,_3) <= 0
2_0_0: z_(0,_0,_0) + z_(0,_0,_1) + z_(0,_0,_2) + z_(0,_0,_3) + z_(0,_0,_4) = 1
2_0_1: z_(0,_1,_0) + z_(0,_1,_1) + z_(0,_1,_2) + z_(0,_1,_3) + z_(0,_1,_4) = 1
2_0_2: z_(0,_2,_0) + z_(0,_2,_1) + z_(0,_2,_2) + z_(0,_2,_3) + z_(0,_2,_4) = 1
2_1_0: z_(1,_0,_0) + z_(1,_0,_1) + z_(1,_0,_2) + z_(1,_0,_3) + z_(1,_0,_4) = 1
2_1_1: z_(1,_1,_0) + z_(1,_1,_1) + z_(1,_1,_2) + z_(1,_1,_3) + z_(1,_1,_4) = 1
2_1_2: z_(1,_2,_0) + z_(1,_2,_1) + z_(1,_2,_2) + z_(1,_2,_3) + z_(1,_2,_4) = 1
2_2_0: z_(2,_0,_0) + z_(2,_0,_1) + z_(2,_0,_2) + z_(2,_0,_3) + z_(2,_0,_4) = 1
2_2_1: z_(2,_1,_0) + z_(2,_1,_1) + z_(2,_1,_2) + z_(2,_1,_3) + z_(2,_1,_4) = 1
2_2_2: z_(2,_2,_0) + z_(2,_2,_1) + z_(2,_2,_2) + z_(2,_2,_3) + z_(2,_2,_4) = 1
3_0_0: - x_(0,_0) - x_(0,_1) - x_(1,_0) - x_(1,_1) - 4 z_(0,_0,_0)
 - 3 z_(0,_0,_1) - 2 z_(0,_0,_2) - z_(0,_0,_3) = -4
3_0_1: - x_(0,_1) - x_(0,_2) - x_(1,_1) - x_(1,_2) - 4 z_(0,_1,_0)
 - 3 z_(0,_1,_1) - 2 z_(0,_1,_2) - z_(0,_1,_3) = -4
3_0_2: - x_(0,_2) - x_(0,_3) - x_(1,_2) - x_(1,_3) - 4 z_(0,_2,_0)
 - 3 z_(0,_2,_1) - 2 z_(0,_2,_2) - z_(0,_2,_3) = -4
3_1_0: - x_(1,_0) - x_(1,_1) - x_(2,_0) - x_(2,_1) - 4 z_(1,_0,_0)
 - 3 z_(1,_0,_1) - 2 z_(1,_0,_2) - z_(1,_0,_3) = -4
3_1_1: - x_(1,_1) - x_(1,_2) - x_(2,_1) - x_(2,_2) - 4 z_(1,_1,_0)
 - 3 z_(1,_1,_1) - 2 z_(1,_1,_2) - z_(1,_1,_3) = -4
3_1_2: - x_(1,_2) - x_(1,_3) - x_(2,_2) - x_(2,_3) - 4 z_(1,_2,_0)
 - 3 z_(1,_2,_1) - 2 z_(1,_2,_2) - z_(1,_2,_3) = -4
3_2_0: - x_(2,_0) - x_(2,_1) - x_(3,_0) - x_(3,_1) - 4 z_(2,_0,_0)
 - 3 z_(2,_0,_1) - 2 z_(2,_0,_2) - z_(2,_0,_3) = -4
3_2_1: - x_(2,_1) - x_(2,_2) - x_(3,_1) - x_(3,_2) - 4 z_(2,_1,_0)
 - 3 z_(2,_1,_1) - 2 z_(2,_1,_2) - z_(2,_1,_3) = -4
3_2_2: - x_(2,_2) - x_(2,_3) - x_(3,_2) - x_(3,_3) - 4 z_(2,_2,_0)
 - 3 z_(2,_2,_1) - 2 z_(2,_2,_2) - z_(2,_2,_3) = -4
4_0_0_0: - x_(0,_0) + 2900 z_(0,_0,_0) <= 2900
4_0_0_1: q_SE_(0,_0) - x_(0,_0) + 2900 z_(0,_0,_1) <= 2900
4_0_0_2: 2 q_SE_(0,_0) - x_(0,_0) + 2900 z_(0,_0,_2) <= 2900
4_0_0_3: 3 q_SE_(0,_0) - x_(0,_0) + 2900 z_(0,_0,_3) <= 2900
4_0_0_4: 4 q_SE_(0,_0) - x_(0,_0) + 2900 z_(0,_0,_4) <= 2900
4_0_1_0: - 21 x_(0,_1) + 3300 z_(0,_1,_0) <= 3300
4_0_1_1: q_SE_(0,_1) - 21 x_(0,_1) + 3300 z_(0,_1,_1) <= 3300
4_0_1_2: 2 q_SE_(0,_1) - 21 x_(0,_1) + 3300 z_(0,_1,_2) <= 3300
4_0_1_3: 3 q_SE_(0,_1) - 21 x_(0,_1) + 3300 z_(0,_1,_3) <= 3300
4_0_1_4: 4 q_SE_(0,_1) - 21 x_(0,_1) + 3300 z_(0,_1,_4) <= 3300
4_0_2_0: - 19 x_(0,_2) + 3000 z_(0,_2,_0) <= 3000
4_0_2_1: q_SE_(0,_2) - 19 x_(0,_2) + 3000 z_(0,_2,_1) <= 3000
4_0_2_2: 2 q_SE_(0,_2) - 19 x_(0,_2) + 3000 z_(0,_2,_2) <= 3000
4_0_2_3: 3 q_SE_(0,_2) - 19 x_(0,_2) + 3000 z_(0,_2,_3) <= 3000
4_0_2_4: 4 q_SE_(0,_2) - 19 x_(0,_2) + 3000 z_(0,_2,_4) <= 3000
4_1_0_0: - 22 x_(1,_0) + 2600 z_(1,_0,_0) <= 2600
4_1_0_1: q_SE_(1,_0) - 22 x_(1,_0) + 2600 z_(1,_0,_1) <= 2600
4_1_0_2: 2 q_SE_(1,_0) - 22 x_(1,_0) + 2600 z_(1,_0,_2) <= 2600
4_1_0_3: 3 q_SE_(1,_0) - 22 x_(1,_0) + 2600 z_(1,_0,_3) <= 2600
4_1_0_4: 4 q_SE_(1,_0) - 22 x_(1,_0) + 2600 z_(1,_0,_4) <= 2600
4_1_1_0: - 24 x_(1,_1) + 3100 z_(1,_1,_0) <= 3100
4_1_1_1: q_SE_(1,_1) - 24 x_(1,_1) + 3100 z_(1,_1,_1) <= 3100
4_1_1_2: 2 q_SE_(1,_1) - 24 x_(1,_1) + 3100 z_(1,_1,_2) <= 3100
4_1_1_3: 3 q_SE_(1,_1) - 24 x_(1,_1) + 3100 z_(1,_1,_3) <= 3100
4_1_1_4: 4 q_SE_(1,_1) - 24 x_(1,_1) + 3100 z_(1,_1,_4) <= 3100
4_1_2_0: - 20 x_(1,_2) + 2600 z_(1,_2,_0) <= 2600
4_1_2_1: q_SE_(1,_2) - 20 x_(1,_2) + 2600 z_(1,_2,_1) <= 2600
4_1_2_2: 2 q_SE_(1,_2) - 20 x_(1,_2) + 2600 z_(1,_2,_2) <= 2600
4_1_2_3: 3 q_SE_(1,_2) - 20 x_(1,_2) + 2600 z_(1,_2,_3) <= 2600
4_1_2_4: 4 q_SE_(1,_2) - 20 x_(1,_2) + 2600 z_(1,_2,_4) <= 2600
4_2_0_0: - 12 x_(2,_0) + 3900 z_(2,_0,_0) <= 3900
4_2_0_1: q_SE_(2,_0) - 12 x_(2,_0) + 3900 z_(2,_0,_1) <= 3900
4_2_0_2: 2 q_SE_(2,_0) - 12 x_(2,_0) + 3900 z_(2,_0,_2) <= 3900
4_2_0_3: 3 q_SE_(2,_0) - 12 x_(2,_0) + 3900 z_(2,_0,_3) <= 3900
4_2_0_4: 4 q_SE_(2,_0) - 12 x_(2,_0) + 3900 z_(2,_0,_4) <= 3900
4_2_1_0: - 20 x_(2,_1) + 2500 z_(2,_1,_0) <= 2500
4_2_1_1: q_SE_(2,_1) - 20 x_(2,_1) + 2500 z_(2,_1,_1) <= 2500
4_2_1_2: 2 q_SE_(2,_1) - 20 x_(2,_1) + 2500 z_(2,_1,_2) <= 2500
4_2_1_3: 3 q_SE_(2,_1) - 20 x_(2,_1) + 2500 z_(2,_1,_3) <= 2500
4_2_1_4: 4 q_SE_(2,_1) - 20 x_(2,_1) + 2500 z_(2,_1,_4) <= 2500
4_2_2_0: - 3 x_(2,_2) + 3500 z_(2,_2,_0) <= 3500
4_2_2_1: q_SE_(2,_2) - 3 x_(2,_2) + 3500 z_(2,_2,_1) <= 3500
4_2_2_2: 2 q_SE_(2,_2) - 3 x_(2,_2) + 3500 z_(2,_2,_2) <= 3500
4_2_2_3: 3 q_SE_(2,_2) - 3 x_(2,_2) + 3500 z_(2,_2,_3) <= 3500
4_2_2_4: 4 q_SE_(2,_2) - 3 x_(2,_2) + 3500 z_(2,_2,_4) <= 3500
5_0_0_0: - x_(0,_1) + 3300 z_(0,_0,_0) <= 3300
5_0_0_1: q_SW_(0,_1) - x_(0,_1) + 3300 z_(0,_0,_1) <= 3300
5_0_0_2: 2 q_SW_(0,_1) - x_(0,_1) + 3300 z_(0,_0,_2) <= 3300
5_0_0_3: 3 q_SW_(0,_1) - x_(0,_1) + 3300 z_(0,_0,_3) <= 3300
5_0_0_4: 4 q_SW_(0,_1) - x_(0,_1) + 3300 z_(0,_0,_4) <= 3300
5_0_1_0: - 21 x_(0,_2) + 3000 z_(0,_1,_0) <= 3000
5_0_1_1: q_SW_(0,_2) - 21 x_(0,_2) + 3000 z_(0,_1,_1) <= 3000
5_0_1_2: 2 q_SW_(0,_2) - 21 x_(0,_2) + 3000 z_(0,_1,_2) <= 3000
5_0_1_3: 3 q_SW_(0,_2) - 21 x_(0,_2) + 3000 z_(0,_1,_3) <= 3000
5_0_1_4: 4 q_SW_(0,_2) - 21 x_(0,_2) + 3000 z_(0,_1,_4) <= 3000
5_0_2_0: - 19 x_(0,_3) + 2900 z_(0,_2,_0) <= 2900
5_0_2_1: q_SW_(0,_3) - 19 x_(0,_3) + 2900 z_(0,_2,_1) <= 2900
5_0_2_2: 2 q_SW_(0,_3) - 19 x_(0,_3) + 2900 z_(0,_2,_2) <= 2900
5_0_2_3: 3 q_SW_(0,_3) - 19 x_(0,_3) + 2900 z_(0,_2,_3) <= 2900
5_0_2_4: 4 q_SW_(0,_3) - 19 x_(0,_3) + 2900 z_(0,_2,_4) <= 2900
5_1_0_0: - 22 x_(1,_1) + 3100 z_(1,_0,_0) <= 3100
5_1_0_1: q_SW_(1,_1) - 22 x_(1,_1) + 3100 z_(1,_0,_1) <= 3100
5_1_0_2: 2 q_SW_(1,_1) - 22 x_(1,_1) + 3100 z_(1,_0,_2) <= 3100
5_1_0_3: 3 q_SW_(1,_1) - 22 x_(1,_1) + 3100 z_(1,_0,_3) <= 3100
5_1_0_4: 4 q_SW_(1,_1) - 22 x_(1,_1) + 3100 z_(1,_0,_4) <= 3100
5_1_1_0: - 24 x_(1,_2) + 2600 z_(1,_1,_0) <= 2600
5_1_1_1: q_SW_(1,_2) - 24 x_(1,_2) + 2600 z_(1,_1,_1) <= 2600
5_1_1_2: 2 q_SW_(1,_2) - 24 x_(1,_2) + 2600 z_(1,_1,_2) <= 2600
5_1_1_3: 3 q_SW_(1,_2) - 24 x_(1,_2) + 2600 z_(1,_1,_3) <= 2600
5_1_1_4: 4 q_SW_(1,_2) - 24 x_(1,_2) + 2600 z_(1,_1,_4) <= 2600
5_1_2_0: - 20 x_(1,_3) + 3700 z_(1,_2,_0) <= 3700
5_1_2_1: q_SW_(1,_3) - 20 x_(1,_3) + 3700 z_(1,_2,_1) <= 3700
5_1_2_2: 2 q_SW_(1,_3) - 20 x_(1,_3) + 3700 z_(1,_2,_2) <= 3700
5_1_2_3: 3 q_SW_(1,_3) - 20 x_(1,_3) + 3700 z_(1,_2,_3) <= 3700
5_1_2_4: 4 q_SW_(1,_3) - 20 x_(1,_3) + 3700 z_(1,_2,_4) <= 3700
5_2_0_0: - 12 x_(2,_1) + 2500 z_(2,_0,_0) <= 2500
5_2_0_1: q_SW_(2,_1) - 12 x_(2,_1) + 2500 z_(2,_0,_1) <= 2500
5_2_0_2: 2 q_SW_(2,_1) - 12 x_(2,_1) + 2500 z_(2,_0,_2) <= 2500
5_2_0_3: 3 q_SW_(2,_1) - 12 x_(2,_1) + 2500 z_(2,_0,_3) <= 2500
5_2_0_4: 4 q_SW_(2,_1) - 12 x_(2,_1) + 2500 z_(2,_0,_4) <= 2500
5_2_1_0: - 20 x_(2,_2) + 3500 z_(2,_1,_0) <= 3500
5_2_1_1: q_SW_(2,_2) - 20 x_(2,_2) + 3500 z_(2,_1,_1) <= 3500
5_2_1_2: 2 q_SW_(2,_2) - 20 x_(2,_2) + 3500 z_(2,_1,_2) <= 3500
5_2_1_3: 3 q_SW_(2,_2) - 20 x_(2,_2) + 3500 z_(2,_1,_3) <= 3500
5_2_1_4: 4 q_SW_(2,_2) - 20 x_(2,_2) + 3500 z_(2,_1,_4) <= 3500
5_2_2_0: - 3 x_(2,_3) + 2800 z_(2,_2,_0) <= 2800
5_2_2_1: q_SW_(2,_3) - 3 x_(2,_3) + 2800 z_(2,_2,_1) <= 2800
5_2_2_2: 2 q_SW_(2,_3) - 3 x_(2,_3) + 2800 z_(2,_2,_2) <= 2800
5_2_2_3: 3 q_SW_(2,_3) - 3 x_(2,_3) + 2800 z_(2,_2,_3) <= 2800
5_2_2_4: 4 q_SW_(2,_3) - 3 x_(2,_3) + 2800 z_(2,_2,_4) <= 2800
6_0_0_0: - x_(1,_0) + 2600 z_(0,_0,_0) <= 2600
6_0_0_1: q_NE_(1,_0) - x_(1,_0) + 2600 z_(0,_0,_1) <= 2600
6_0_0_2: 2 q_NE_(1,_0) - x_(1,_0) + 2600 z_(0,_0,_2) <= 2600
6_0_0_3: 3 q_NE_(1,_0) - x_(1,_0) + 2600 z_(0,_0,_3) <= 2600
6_0_0_4: 4 q_NE_(1,_0) - x_(1,_0) + 2600 z_(0,_0,_4) <= 2600
6_0_1_0: - 21 x_(1,_1) + 3100 z_(0,_1,_0) <= 3100
6_0_1_1: q_NE_(1,_1) - 21 x_(1,_1) + 3100 z_(0,_1,_1) <= 3100
6_0_1_2: 2 q_NE_(1,_1) - 21 x_(1,_1) + 3100 z_(0,_1,_2) <= 3100
6_0_1_3: 3 q_NE_(1,_1) - 21 x_(1,_1) + 3100 z_(0,_1,_3) <= 3100
6_0_1_4: 4 q_NE_(1,_1) - 21 x_(1,_1) + 3100 z_(0,_1,_4) <= 3100
6_0_2_0: - 19 x_(1,_2) + 2600 z_(0,_2,_0) <= 2600
6_0_2_1: q_NE_(1,_2) - 19 x_(1,_2) + 2600 z_(0,_2,_1) <= 2600
6_0_2_2: 2 q_NE_(1,_2) - 19 x_(1,_2) + 2600 z_(0,_2,_2) <= 2600
6_0_2_3: 3 q_NE_(1,_2) - 19 x_(1,_2) + 2600 z_(0,_2,_3) <= 2600
6_0_2_4: 4 q_NE_(1,_2) - 19 x_(1,_2) + 2600 z_(0,_2,_4) <= 2600
6_1_0_0: - 22 x_(2,_0) + 3900 z_(1,_0,_0) <= 3900
6_1_0_1: q_NE_(2,_0) - 22 x_(2,_0) + 3900 z_(1,_0,_1) <= 3900
6_1_0_2: 2 q_NE_(2,_0) - 22 x_(2,_0) + 3900 z_(1,_0,_2) <= 3900
6_1_0_3: 3 q_NE_(2,_0) - 22 x_(2,_0) + 3900 z_(1,_0,_3) <= 3900
6_1_0_4: 4 q_NE_(2,_0) - 22 x_(2,_0) + 3900 z_(1,_0,_4) <= 3900
6_1_1_0: - 24 x_(2,_1) + 2500 z_(1,_1,_0) <= 2500
6_1_1_1: q_NE_(2,_1) - 24 x_(2,_1) + 2500 z_(1,_1,_1) <= 2500
6_1_1_2: 2 q_NE_(2,_1) - 24 x_(2,_1) + 2500 z_(1,_1,_2) <= 2500
6_1_1_3: 3 q_NE_(2,_1) - 24 x_(2,_1) + 2500 z_(1,_1,_3) <= 2500
6_1_1_4: 4 q_NE_(2,_1) - 24 x_(2,_1) + 2500 z_(1,_1,_4) <= 2500
6_1_2_0: - 20 x_(2,_2) + 3500 z_(1,_2,_0) <= 3500
6_1_2_1: q_NE_(2,_2) - 20 x_(2,_2) + 3500 z_(1,_2,_1) <= 3500
6_1_2_2: 2 q_NE_(2,_2) - 20 x_(2,_2) + 3500 z_(1,_2,_2) <= 3500
6_1_2_3: 3 q_NE_(2,_2) - 20 x_(2,_2) + 3500 z_(1,_2,_3) <= 3500
6_1_2_4: 4 q_NE_(2,_2) - 20 x_(2,_2) + 3500 z_(1,_2,_4) <= 3500
6_2_0_0: - 12 x_(3,_0) + 2900 z_(2,_0,_0) <= 2900
6_2_0_1: q_NE_(3,_0) - 12 x_(3,_0) + 2900 z_(2,_0,_1) <= 2900
6_2_0_2: 2 q_NE_(3,_0) - 12 x_(3,_0) + 2900 z_(2,_0,_2) <= 2900
6_2_0_3: 3 q_NE_(3,_0) - 12 x_(3,_0) + 2900 z_(2,_0,_3) <= 2900
6_2_0_4: 4 q_NE_(3,_0) - 12 x_(3,_0) + 2900 z_(2,_0,_4) <= 2900
6_2_1_0: - 20 x_(3,_1) + 3800 z_(2,_1,_0) <= 3800
6_2_1_1: q_NE_(3,_1) - 20 x_(3,_1) + 3800 z_(2,_1,_1) <= 3800
6_2_1_2: 2 q_NE_(3,_1) - 20 x_(3,_1) + 3800 z_(2,_1,_2) <= 3800
6_2_1_3: 3 q_NE_(3,_1) - 20 x_(3,_1) + 3800 z_(2,_1,_3) <= 3800
6_2_1_4: 4 q_NE_(3,_1) - 20 x_(3,_1) + 3800 z_(2,_1,_4) <= 3800
6_2_2_0: - 3 x_(3,_2) + 1700 z_(2,_2,_0) <= 1700
6_2_2_1: q_NE_(3,_2) - 3 x_(3,_2) + 1700 z_(2,_2,_1) <= 1700
6_2_2_2: 2 q_NE_(3,_2) - 3 x_(3,_2) + 1700 z_(2,_2,_2) <= 1700
6_2_2_3: 3 q_NE_(3,_2) - 3 x_(3,_2) + 1700 z_(2,_2,_3) <= 1700
6_2_2_4: 4 q_NE_(3,_2) - 3 x_(3,_2) + 1700 z_(2,_2,_4) <= 1700
7_0_0_0: - x_(1,_1) + 3100 z_(0,_0,_0) <= 3100
7_0_0_1: q_NW_(1,_1) - x_(1,_1) + 3100 z_(0,_0,_1) <= 3100
7_0_0_2: 2 q_NW_(1,_1) - x_(1,_1) + 3100 z_(0,_0,_2) <= 3100
7_0_0_3: 3 q_NW_(1,_1) - x_(1,_1) + 3100 z_(0,_0,_3) <= 3100
7_0_0_4: 4 q_NW_(1,_1) - x_(1,_1) + 3100 z_(0,_0,_4) <= 3100
7_0_1_0: - 21 x_(1,_2) + 2600 z_(0,_1,_0) <= 2600
7_0_1_1: q_NW_(1,_2) - 21 x_(1,_2) + 2600 z_(0,_1,_1) <= 2600
7_0_1_2: 2 q_NW_(1,_2) - 21 x_(1,_2) + 2600 z_(0,_1,_2) <= 2600
7_0_1_3: 3 q_NW_(1,_2) - 21 x_(1,_2) + 2600 z_(0,_1,_3) <= 2600
7_0_1_4: 4 q_NW_(1,_2) - 21 x_(1,_2) + 2600 z_(0,_1,_4) <= 2600
7_0_2_0: - 19 x_(1,_3) + 3700 z_(0,_2,_0) <= 3700
7_0_2_1: q_NW_(1,_3) - 19 x_(1,_3) + 3700 z_(0,_2,_1) <= 3700
7_0_2_2: 2 q_NW_(1,_3) - 19 x_(1,_3) + 3700 z_(0,_2,_2) <= 3700
7_0_2_3: 3 q_NW_(1,_3) - 19 x_(1,_3) + 3700 z_(0,_2,_3) <= 3700
7_0_2_4: 4 q_NW_(1,_3) - 19 x_(1,_3) + 3700 z_(0,_2,_4) <= 3700
7_1_0_0: - 22 x_(2,_1) + 2500 z_(1,_0,_0) <= 2500
7_1_0_1: q_NW_(2,_1) - 22 x_(2,_1) + 2500 z_(1,_0,_1) <= 2500
7_1_0_2: 2 q_NW_(2,_1) - 22 x_(2,_1) + 2500 z_(1,_0,_2) <= 2500
7_1_0_3: 3 q_NW_(2,_1) - 22 x_(2,_1) + 2500 z_(1,_0,_3) <= 2500
7_1_0_4: 4 q_NW_(2,_1) - 22 x_(2,_1) + 2500 z_(1,_0,_4) <= 2500
7_1_1_0: - 24 x_(2,_2) + 3500 z_(1,_1,_0) <= 3500
7_1_1_1: q_NW_(2,_2) - 24 x_(2,_2) + 3500 z_(1,_1,_1) <= 3500
7_1_1_2: 2 q_NW_(2,_2) - 24 x_(2,_2) + 3500 z_(1,_1,_2) <= 3500
7_1_1_3: 3 q_NW_(2,_2) - 24 x_(2,_2) + 3500 z_(1,_1,_3) <= 3500
7_1_1_4: 4 q_NW_(2,_2) - 24 x_(2,_2) + 3500 z_(1,_1,_4) <= 3500
7_1_2_0: - 20 x_(2,_3) + 2800 z_(1,_2,_0) <= 2800
7_1_2_1: q_NW_(2,_3) - 20 x_(2,_3) + 2800 z_(1,_2,_1) <= 2800
7_1_2_2: 2 q_NW_(2,_3) - 20 x_(2,_3) + 2800 z_(1,_2,_2) <= 2800
7_1_2_3: 3 q_NW_(2,_3) - 20 x_(2,_3) + 2800 z_(1,_2,_3) <= 2800
7_1_2_4: 4 q_NW_(2,_3) - 20 x_(2,_3) + 2800 z_(1,_2,_4) <= 2800
7_2_0_0: - 12 x_(3,_1) + 3800 z_(2,_0,_0) <= 3800
7_2_0_1: q_NW_(3,_1) - 12 x_(3,_1) + 3800 z_(2,_0,_1) <= 3800
7_2_0_2: 2 q_NW_(3,_1) - 12 x_(3,_1) + 3800 z_(2,_0,_2) <= 3800
7_2_0_3: 3 q_NW_(3,_1) - 12 x_(3,_1) + 3800 z_(2,_0,_3) <= 3800
7_2_0_4: 4 q_NW_(3,_1) - 12 x_(3,_1) + 3800 z_(2,_0,_4) <= 3800
7_2_1_0: - 20 x_(3,_2) + 1700 z_(2,_1,_0) <= 1700
7_2_1_1: q_NW_(3,_2) - 20 x_(3,_2) + 1700 z_(2,_1,_1) <= 1700
7_2_1_2: 2 q_NW_(3,_2) - 20 x_(3,_2) + 1700 z_(2,_1,_2) <= 1700
7_2_1_3: 3 q_NW_(3,_2) - 20 x_(3,_2) + 1700 z_(2,_1,_3) <= 1700
7_2_1_4: 4 q_NW_(3,_2) - 20 x_(3,_2) + 1700 z_(2,_1,_4) <= 1700
7_2_2_0: - 3 x_(3,_3) + 1700 z_(2,_2,_0) <= 1700
7_2_2_1: q_NW_(3,_3) - 3 x_(3,_3) + 1700 z_(2,_2,_1) <= 1700
7_2_2_2: 2 q_NW_(3,_3) - 3 x_(3,_3) + 1700 z_(2,_2,_2) <= 1700
7_2_2_3: 3 q_NW_(3,_3) - 3 x_(3,_3) + 1700 z_(2,_2,_3) <= 1700
7_2_2_4: 4 q_NW_(3,_3) - 3 x_(3,_3) + 1700 z_(2,_2,_4) <= 1700
8_0_0: q_NE_(1,_0) + q_NW_(1,_1) + q_SE_(0,_0) + q_SW_(0,_1) = 1
8_0_1: q_NE_(1,_1) + q_NW_(1,_2) + q_SE_(0,_1) + q_SW_(0,_2) = 21
8_0_2: q_NE_(1,_2) + q_NW_(1,_3) + q_SE_(0,_2) + q_SW_(0,_3) = 19
8_1_0: q_NE_(2,_0) + q_NW_(2,_1) + q_SE_(1,_0) + q_SW_(1,_1) = 22
8_1_1: q_NE_(2,_1) + q_NW_(2,_2) + q_SE_(1,_1) + q_SW_(1,_2) = 24
8_1_2: q_NE_(2,_2) + q_NW_(2,_3) + q_SE_(1,_2) + q_SW_(1,_3) = 20
8_2_0: q_NE_(3,_0) + q_NW_(3,_1) + q_SE_(2,_0) + q_SW_(2,_1) = 12
8_2_1: q_NE_(3,_1) + q_NW_(3,_2) + q_SE_(2,_1) + q_SW_(2,_2) = 20
8_2_2: q_NE_(3,_2) + q_NW_(3,_3) + q_SE_(2,_2) + q_SW_(2,_3) = 3
9_0_0: q_(0,_0) - q_NE_(0,_0) - q_NW_(0,_0) - q_SE_(0,_0) - q_SW_(0,_0) = 0
9_0_1: q_(0,_1) - q_NE_(0,_1) - q_NW_(0,_1) - q_SE_(0,_1) - q_SW_(0,_1) = 0
9_0_2: q_(0,_2) - q_NE_(0,_2) - q_NW_(0,_2) - q_SE_(0,_2) - q_SW_(0,_2) = 0
9_0_3: q_(0,_3) - q_NE_(0,_3) - q_NW_(0,_3) - q_SE_(0,_3) - q_SW_(0,_3) = 0
9_1_0: q_(1,_0) - q_NE_(1,_0) - q_NW_(1,_0) - q_SE_(1,_0) - q_SW_(1,_0) = 0
9_1_1: q_(1,_1) - q_NE_(1,_1) - q_NW_(1,_1) - q_SE_(1,_1) - q_SW_(1,_1) = 0
9_1_2: q_(1,_2) - q_NE_(1,_2) - q_NW_(1,_2) - q_SE_(1,_2) - q_SW_(1,_2) = 0
9_1_3: q_(1,_3) - q_NE_(1,_3) - q_NW_(1,_3) - q_SE_(1,_3) - q_SW_(1,_3) = 0
9_2_0: q_(2,_0) - q_NE_(2,_0) - q_NW_(2,_0) - q_SE_(2,_0) - q_SW_(2,_0) = 0
9_2_1: q_(2,_1) - q_NE_(2,_1) - q_NW_(2,_1) - q_SE_(2,_1) - q_SW_(2,_1) = 0
9_2_2: q_(2,_2) - q_NE_(2,_2) - q_NW_(2,_2) - q_SE_(2,_2) - q_SW_(2,_2) = 0
9_2_3: q_(2,_3) - q_NE_(2,_3) - q_NW_(2,_3) - q_SE_(2,_3) - q_SW_(2,_3) = 0
9_3_0: q_(3,_0) - q_NE_(3,_0) - q_NW_(3,_0) - q_SE_(3,_0) - q_SW_(3,_0) = 0
9_3_1: q_(3,_1) - q_NE_(3,_1) - q_NW_(3,_1) - q_SE_(3,_1) - q_SW_(3,_1) = 0
9_3_2: q_(3,_2) - q_NE_(3,_2) - q_NW_(3,_2) - q_SE_(3,_2) - q_SW_(3,_2) = 0
9_3_3: q_(3,_3) - q_NE_(3,_3) - q_NW_(3,_3) - q_SE_(3,_3) - q_SW_(3,_3) = 0
Binaries
x_(0,_0)
x_(0,_1)
x_(0,_2)
x_(0,_3)
x_(1,_0)
x_(1,_1)
x_(1,_2)
x_(1,_3)
x_(2,_0)
x_(2,_1)
x_(2,_2)
x_(2,_3)
x_(3,_0)
x_(3,_1)
x_(3,_2)
x_(3,_3)
z_(0,_0,_0)
z_(0,_0,_1)
z_(0,_0,_2)
z_(0,_0,_3)
z_(0,_0,_4)
z_(0,_1,_0)
z_(0,_1,_1)
z_(0,_1,_2)
z_(0,_1,_3)
z_(0,_1,_4)
z_(0,_2,_0)
z_(0,_2,_1)
z_(0,_2,_2)
z_(0,_2,_3)
z_(0,_2,_4)
z_(1,_0,_0)
z_(1,_0,_1)
z_(1,_0,_2)
z_(1,_0,_3)
z_(1,_0,_4)
z_(1,_1,_0)
z_(1,_1,_1)
z_(1,_1,_2)
z_(1,_1,_3)
z_(1,_1,_4)
z_(1,_2,_0)
z_(1,_2,_1)
z_(1,_2,_2)
z_(1,_2,_3)
z_(1,_2,_4)
z_(2,_0,_0)
z_(2,_0,_1)
z_(2,_0,_2)
z_(2,_0,_3)
z_(2,_0,_4)
z_(2,_1,_0)
z_(2,_1,_1)
z_(2,_1,_2)
z_(2,_1,_3)
z_(2,_1,_4)
z_(2,_2,_0)
z_(2,_2,_1)
z_(2,_2,_2)
z_(2,_2,_3)
z_(2,_2,_4)
End
